/* Objective function */
max: +t;

/* Constraints */
+0.538937866688 pi1 +0.573812365532 pi2 +0.541173636913 pi3 +0.61043792963 pi4 +0.525258123875 pi5 -t >= 0;
+0.530451714993 pi1 +0.539504289627 pi2 +0.555049538612 pi3 +0.65610563755 pi4 +0.563071250916 pi5 -t >= 0;
+0.553242385387 pi1 +0.808593213558 pi2 +0.542407572269 pi3 +0.737502574921 pi4 +0.558706521988 pi5 -t >= 0;
+0.523973405361 pi1 +0.726931214333 pi2 +0.559408962727 pi3 +0.539293646812 pi4 +0.644862830639 pi5 -t >= 0;
+0.610447347164 pi1 +0.737771868706 pi2 +0.656102776527 pi3 +0.783916532993 pi4 +0.525255441666 pi5 -t >= 0;
+pi1 +pi2 +pi3 +pi4 +pi5 = 1;
